(set-info :source |printed by MathSAT|)

1 (5) @37:
(assert true)

5 (13) @58:
(assert true)

13 (18,17,16,14) @58:
(assert true)

18 () @432:
(assert true)

17 () @433:
(assert true)

16 () @58:
(assert true)

14 () @434:
(assert true)

